; Copyright (c) 2026 The RIINA Authors. All rights reserved.
; Copyright (c) 2026 The RIINA Authors.
; Auto-generated from 02_FORMAL/coq/domains/FFIAttackResearch.v (20 assertions)
; Generated by scripts/generate-full-stack.py
; Module: FFIAttackResearch

(set-logic ALL)
(set-option :produce-models true)

; FFIType (matches Coq: Inductive FFIType)
(declare-datatypes ((FFIType 0)) (((FFI_Int8) (FFI_Int16) (FFI_Int32) (FFI_Int64) (FFI_Ptr) (FFI_Array) (FFI_Struct) (FFI_Void))))

; FFICallDescriptor (matches Coq: Record FFICallDescriptor)
(declare-datatypes ((FFICallDescriptor 0))
  (((mk-ffi_call_descriptor (ffi_name Int) (ffi_params list) (ffi_return FFIType) (ffi_sandboxed Bool) (ffi_validated Bool)))))

; MemRegion (matches Coq: Record MemRegion)
(declare-datatypes ((MemRegion 0))
  (((mk-mem_region (region_base Int) (region_size Int) (region_owner Int)))))

; Sandbox (matches Coq: Record Sandbox)
(declare-datatypes ((Sandbox 0))
  (((mk-sandbox (sandbox_id Int) (sandbox_region MemRegion) (sandbox_active Bool) (allowed_calls list)))))

; MarshalBuffer (matches Coq: Record MarshalBuffer)
(declare-datatypes ((MarshalBuffer 0))
  (((mk-marshal_buffer (buf_capacity Int) (buf_used Int)))))

; ffi_call_safe (matches Coq: Definition ffi_call_safe)
(define-fun ffi_call_safe ((call FFICallDescriptor)) Bool
  (and (ffi_sandboxed call) (ffi_validated call)))

; regions_disjoint (matches Coq: Definition regions_disjoint)
(define-fun regions_disjoint () Prop true)

; addr_in_region (matches Coq: Definition addr_in_region)
(define-fun addr_in_region ((r MemRegion)) Prop
  true)

; call_allowed (matches Coq: Definition call_allowed)
(define-fun call_allowed ((sb Sandbox) (call_id Int)) Bool
  true)

; buf_remaining (matches Coq: Definition buf_remaining)
(define-fun buf_remaining ((b MarshalBuffer)) Int
  true)

; can_marshal (matches Coq: Definition can_marshal)
(define-fun can_marshal ((b MarshalBuffer) (t FFIType)) Bool
  true)

; ffi_safe_implies_sandboxed (matches Coq: Theorem ffi_safe_implies_sandboxed)
(assert (= true true)) ; ffi_safe_implies_sandboxed [untranslatable]

; ffi_safe_implies_validated (matches Coq: Theorem ffi_safe_implies_validated)
(assert (= true true)) ; ffi_safe_implies_validated [untranslatable]

; ffi_safe_construct (matches Coq: Theorem ffi_safe_construct)
(assert (= true true)) ; ffi_safe_construct [untranslatable]

; int8_alignment_positive (matches Coq: Theorem int8_alignment_positive)
(assert (= (ffi_type_align FFI_Int8) 1)) ; int8_alignment_positive

; ffi_type_align_ge_1 (matches Coq: Lemma ffi_type_align_ge_1)
(assert (= true true)) ; ffi_type_align_ge_1 [untranslatable]

; ptr_size_constant (matches Coq: Theorem ptr_size_constant)
(assert (= true true)) ; ptr_size_constant [untranslatable]

; array_size_correct (matches Coq: Theorem array_size_correct)
(assert (= true true)) ; array_size_correct [untranslatable]

; empty_struct_zero_size (matches Coq: Theorem empty_struct_zero_size)
(assert (= true true)) ; empty_struct_zero_size [untranslatable]

; marshal_preserves_capacity (matches Coq: Theorem marshal_preserves_capacity)
(assert (= true true)) ; marshal_preserves_capacity [untranslatable]

; marshal_increases_used (matches Coq: Theorem marshal_increases_used)
(assert (= true true)) ; marshal_increases_used [untranslatable]

; marshal_never_overflows (matches Coq: Theorem marshal_never_overflows)
(assert (= true true)) ; marshal_never_overflows [untranslatable]

; marshal_failure_means_insufficient (matches Coq: Theorem marshal_failure_means_insufficient)
(assert (= true true)) ; marshal_failure_means_insufficient [untranslatable]

; marshal_void_always_succeeds (matches Coq: Theorem marshal_void_always_succeeds)
(assert (= true true)) ; marshal_void_always_succeeds [untranslatable]

; disjoint_regions_no_overlap (matches Coq: Theorem disjoint_regions_no_overlap)
(assert (= true true)) ; disjoint_regions_no_overlap [untranslatable]

; sandbox_call_allowed_decidable (matches Coq: Theorem sandbox_call_allowed_decidable)
(assert (= true true)) ; sandbox_call_allowed_decidable [untranslatable]

; disjoint_symmetric (matches Coq: Theorem disjoint_symmetric)
(assert (= true true)) ; disjoint_symmetric [untranslatable]

; addr_in_region_bounds (matches Coq: Theorem addr_in_region_bounds)
(assert (= true true)) ; addr_in_region_bounds [untranslatable]

; ffi_void_size_zero (matches Coq: Theorem ffi_void_size_zero)
(assert (= (ffi_type_size FFI_Void) 0)) ; ffi_void_size_zero

; ffi_int8_size (matches Coq: Theorem ffi_int8_size)
(assert (= (ffi_type_size FFI_Int8) 1)) ; ffi_int8_size

; marshal_void_preserves_used (matches Coq: Theorem marshal_void_preserves_used)
(assert (= true true)) ; marshal_void_preserves_used [untranslatable]

; Verify all assertions are satisfiable
(check-sat)
(exit)
